14244
1 1 1 1 0 1 1 0 1 1 
9 9 2 2 2 2 9 2 2 2 2 2 2 2 2 2 2 2 2 1 1 1 1 1 1 2 2 2 3 2 3 2 3 3 3 3 3 3 3 6 3 3 3 3 3 3 3 3 3 3 3 3 6 6 6 6 3 6 6 6 6 0 0 6 0 6 0 6 6 5 5 6 5 0 9 5 0 0 0 5 8 5 5 5 6 5 8 6 5 6 5 5 9 5 8 5 8 5 5 5 